c CNF file generated from BLIF2CNF script.
c Original BLIF file was blif/sex.blif
p cnf 59 203
1 -5 0
-2 -5 0
-3 -5 0
5 -1 2 3  0
-5 4 0
-4 5  0
-1 -10 0
6 -10 0
-8 -10 0
-2 -10 0
3 -10 0
10 1 -6 8 2 -3  0
-10 9 0
-1 -11 0
7 -11 0
-8 -11 0
-2 -11 0
3 -11 0
11 1 -7 8 2 -3  0
-11 9 0
-9 10 11  0
13 -16 0
14 -16 0
-3 -16 0
16 -13 -14 3  0
-16 15 0
-12 -17 0
13 -17 0
-14 -17 0
3 -17 0
17 12 -13 14 -3  0
-17 15 0
-15 16 17  0
14 -19 0
3 -19 0
19 -14 -3  0
-19 18 0
-6 -20 0
-7 -20 0
-14 -20 0
-3 -20 0
20 6 7 14 3  0
-20 18 0
-18 19 20  0
14 -22 0
2 -22 0
22 -14 -2  0
-22 21 0
-1 -23 0
6 -23 0
-8 -23 0
-14 -23 0
-2 -23 0
23 1 -6 8 14 2  0
-23 21 0
-1 -24 0
7 -24 0
-8 -24 0
-14 -24 0
-2 -24 0
24 1 -7 8 14 2  0
-24 21 0
-21 22 23 24  0
12 -26 0
-14 -26 0
26 -12 14  0
-26 25 0
-14 -27 0
2 -27 0
27 14 -2  0
-27 25 0
1 -28 0
14 -28 0
-2 -28 0
28 -1 -14 2  0
-28 25 0
-25 26 27 28  0
6 -30 0
2 -30 0
30 -6 -2  0
-30 29 0
-1 -31 0
6 -31 0
-14 -31 0
31 1 -6 14  0
-31 29 0
1 -32 0
14 -32 0
-2 -32 0
32 -1 -14 2  0
-32 29 0
6 -33 0
-14 -33 0
3 -33 0
33 -6 14 -3  0
-33 29 0
1 -34 0
-2 -34 0
-3 -34 0
34 -1 2 3  0
-34 29 0
14 -35 0
-2 -35 0
-3 -35 0
35 -14 2 3  0
-35 29 0
-1 -36 0
6 -36 0
-8 -36 0
3 -36 0
36 1 -6 8 -3  0
-36 29 0
-29 30 31 32 33 34 35 36  0
1 -38 0
14 -38 0
-2 -38 0
38 -1 -14 2  0
-38 37 0
1 -39 0
-2 -39 0
-3 -39 0
39 -1 2 3  0
-39 37 0
14 -40 0
-2 -40 0
-3 -40 0
40 -14 2 3  0
-40 37 0
-37 38 39 40  0
6 -42 0
2 -42 0
42 -6 -2  0
-42 41 0
-1 -43 0
6 -43 0
-14 -43 0
43 1 -6 14  0
-43 41 0
6 -44 0
-14 -44 0
3 -44 0
44 -6 14 -3  0
-44 41 0
-1 -45 0
6 -45 0
-8 -45 0
3 -45 0
45 1 -6 8 -3  0
-45 41 0
-41 42 43 44 45  0
7 -47 0
2 -47 0
47 -7 -2  0
-47 46 0
-1 -48 0
7 -48 0
-14 -48 0
48 1 -7 14  0
-48 46 0
7 -49 0
-14 -49 0
3 -49 0
49 -7 14 -3  0
-49 46 0
-1 -50 0
7 -50 0
-8 -50 0
3 -50 0
50 1 -7 8 -3  0
-50 46 0
-46 47 48 49 50  0
14 -52 0
-2 -52 0
-3 -52 0
52 -14 2 3  0
-52 51 0
-12 -53 0
-13 -53 0
-14 -53 0
-2 -53 0
3 -53 0
53 12 13 14 2 -3  0
-53 51 0
-51 52 53  0
-12 -55 0
-13 -55 0
-14 -55 0
-2 -55 0
3 -55 0
55 12 13 14 2 -3  0
-55 54 0
-54 55  0
-14 -57 0
2 -57 0
57 14 -2  0
-57 56 0
-56 57  0
14 -59 0
-2 -59 0
-3 -59 0
59 -14 2 3  0
-59 58 0
-58 59  0
